data/solutions/issoire/issoire.log

Gurobi 12.0.2 (win64) logging started Thu May 29 14:01:35 2025

Set parameter LogFile to value "data/solutions/issoire/issoire.log"
Gurobi Optimizer version 12.0.2 build v12.0.2rc0 (win64 - Windows 11.0 (26100.2))

CPU model: Intel(R) Core(TM) i5-14600KF, instruction set [SSE2|AVX|AVX2]
Thread count: 14 physical cores, 20 logical processors, using up to 1 threads

Non-default parameters:
TimeLimit  3600
FeasibilityTol  1e-07
IntFeasTol  1e-07
MIPGap  0
Threads  1
LazyConstraints  1

Academic license 2670408 - for non-commercial use only - registered to s6___@uni-bonn.de
Optimize a model with 230 rows, 277 columns and 1070 nonzeros
Model fingerprint: 0x7efb306c
Model has 1 quadratic constraint
Variable types: 3 continuous, 274 integer (274 binary)
Coefficient statistics:
  Matrix range     [1e+00, 2e+06]
  QMatrix range    [1e+00, 1e+01]
  Objective range  [1e+00, 1e+00]
  Bounds range     [1e+00, 1e+00]
  RHS range        [1e+00, 1e+00]
Presolve removed 1 rows and 0 columns
Presolve time: 0.00s
Presolved: 229 rows, 277 columns, 1022 nonzeros
Presolved model has 1 quadratic constraint(s)
Variable types: 3 continuous, 274 integer (274 binary)

Root relaxation: objective 0.000000e+00, 2 iterations, 0.00 seconds (0.00 work units)

    Nodes    |    Current Node    |     Objective Bounds      |     Work
 Expl Unexpl |  Obj  Depth IntInf | Incumbent    BestBd   Gap | It/Node Time

     0     0    0.00000    0    -          -    0.00000      -     -    0s
     0     0    0.00000    0    6          -    0.00000      -     -    0s
H    0     0                       3.9157415    0.00000   100%     -    0s
H    0     0                       1.5556075    0.00000   100%     -    0s
     0     0    0.00000    0   12    1.55561    0.00000   100%     -    0s
H    0     0                       1.3338845    0.00000   100%     -    0s
H    0     0                       1.3338845    0.00000   100%     -    0s
H    0     0                       1.3155483    0.00000   100%     -    0s
     0     0    0.00000    0    -    1.31555    0.00000   100%     -    0s
     0     0    0.01691    0   58    1.31555    0.01691  98.7%     -    0s
     0     0    0.01808    0   57    1.31555    0.01808  98.6%     -    0s
     0     0    0.01844    0   61    1.31555    0.01844  98.6%     -    0s
     0     0    0.01862    0   61    1.31555    0.01862  98.6%     -    0s
     0     0    0.01865    0   61    1.31555    0.01865  98.6%     -    0s
     0     0    0.01871    0   61    1.31555    0.01871  98.6%     -    0s
     0     2    0.01939    0   61    1.31555    0.01939  98.5%     -    0s
H   27    11                       1.0097886    0.10684  89.4%  11.3    0s
H   27    11                       1.0097886    0.10684  89.4%  11.3    0s
*   36     5              17       1.0088961    0.95841  5.00%  14.7    0s
*   38     2              16       1.0075599    0.99875  0.87%  14.0    0s
*   39     1              15       1.0074308    1.00500  0.24%  13.6    0s
*   40     0              13       1.0056908    1.00569  0.00%  13.3    0s

Cutting planes:
  MIR: 1
  Zero half: 3
  RLT: 3
  Lazy constraints: 1

Explored 41 nodes (1113 simplex iterations) in 0.09 seconds (0.07 work units)
Thread count was 1 (of 20 available processors)

Solution count 9: 1.00569 1.00743 1.00756 ... 3.91574

Optimal solution found (tolerance 0.00e+00)
Best objective 1.005690818594e+00, best bound 1.005690818594e+00, gap 0.0000%

User-callback calls 323, time in user-callback 0.00 sec
